* ENCODING=ISO-8859-1
NAME          CPLEX
ROWS
 N  obj1    
 G  c1      
 G  c2      
 G  c3      
 G  c4      
 G  c5      
 G  c6      
 G  c7      
 G  c8      
 G  c9      
 G  c10     
 G  c11     
 G  c12     
 G  c13     
 G  c14     
 G  c15     
 G  c16     
 G  c17     
 G  c18     
 G  c19     
 G  c20     
 G  c21     
 G  c22     
 G  c23     
 G  c24     
 G  c25     
COLUMNS
    MARK0000  'MARKER'                 'INTORG'
    x1        obj1                            1
    x1        c13                           666
    x1        c19                           385
    x1        c21                           566
    x1        c22                           126
    x2        obj1                            1
    x2        c18                           865
    x3        obj1                            1
    x3        c2                            545
    x3        c11                           339
    x3        c13                           425
    x3        c19                           508
    x4        obj1                            1
    x4        c17                           952
    x5        obj1                            1
    x6        obj1                            1
    x6        c10                           718
    x7        obj1                            1
    x7        c2                            572
    x7        c15                           871
    x7        c23                           124
    x8        obj1                            1
    x8        c11                           248
    x9        obj1                            1
    x9        c3                            422
    x9        c4                            194
    x9        c12                           589
    x9        c16                           785
    x10       obj1                            1
    x10       c12                           542
    x11       obj1                            1
    x11       c23                           979
    x12       obj1                            1
    x12       c4                            248
    x12       c15                           579
    x13       obj1                            1
    x13       c8                            651
    x13       c13                           109
    x13       c14                           586
    x14       obj1                            1
    x15       obj1                            1
    x15       c15                           237
    x16       obj1                            1
    x16       c8                            443
    x16       c12                           132
    x16       c14                           192
    x17       obj1                            1
    x17       c21                           344
    x17       c23                           653
    x18       obj1                            1
    x18       c6                            950
    x18       c21                           137
    x19       obj1                            1
    x19       c5                            757
    x19       c15                           635
    x20       obj1                            1
    x21       obj1                            1
    x21       c1                            298
    x21       c7                            364
    x21       c8                            423
    x21       c9                            668
    x21       c14                           102
    x21       c20                           141
    x21       c23                           445
    x22       obj1                            1
    x22       c6                            160
    x22       c8                            516
    x22       c9                            680
    x22       c25                           883
    x23       obj1                            1
    x23       c10                           290
    x23       c13                           538
    x23       c24                           753
    x24       obj1                            1
    x24       c10                           810
    x24       c19                           167
    x24       c24                           674
    x25       obj1                            1
    x25       c11                           538
    x25       c19                           618
    x25       c24                           230
    x26       obj1                            1
    x26       c1                            123
    x26       c10                           317
    x27       obj1                            1
    x27       c22                           154
    x28       obj1                            1
    x28       c5                            559
    x28       c18                           539
    x29       obj1                            1
    x29       c3                            201
    x29       c8                            738
    x29       c18                           544
    x29       c20                           248
    x29       c24                           548
    x30       obj1                            1
    x30       c1                            850
    x30       c3                            497
    x30       c6                            285
    x30       c14                           643
    x31       obj1                            1
    x31       c16                           481
    x31       c21                           586
    x31       c25                           665
    x32       obj1                            1
    x32       c16                           470
    x32       c22                           851
    x33       obj1                            1
    x34       obj1                            1
    x34       c2                            925
    x34       c14                           332
    x35       obj1                            1
    x35       c4                            497
    x35       c14                           901
    x35       c25                           643
    x36       obj1                            1
    x36       c5                            113
    x36       c7                            191
    x36       c14                           244
    x36       c15                           208
    x36       c23                           533
    x37       obj1                            1
    x37       c2                            196
    x38       obj1                            1
    x38       c7                            936
    x38       c9                            566
    x38       c10                           682
    x38       c13                           477
    x39       obj1                            1
    x39       c8                            565
    x39       c21                           593
    x40       obj1                            1
    x40       c3                            275
    x40       c8                            846
    x40       c20                           908
    x40       c23                           858
    x41       obj1                            1
    x41       c12                           537
    x41       c19                           345
    x42       obj1                            1
    x43       obj1                            1
    x43       c1                            856
    x43       c9                            790
    x43       c19                           253
    x43       c20                           714
    x44       obj1                            1
    x44       c6                            251
    x44       c7                            910
    x44       c19                           198
    x45       obj1                            1
    x45       c22                           275
    x45       c24                           239
    x46       obj1                            1
    x46       c1                           1000
    x46       c4                            667
    x46       c5                            374
    x46       c21                           310
    x46       c24                           498
    x47       obj1                            1
    x47       c15                           513
    x47       c21                           282
    x47       c22                           488
    x47       c24                           201
    x48       obj1                            1
    x48       c17                           149
    x48       c22                           274
    x49       obj1                            1
    x49       c2                            448
    x49       c12                           942
    x49       c16                           231
    x50       obj1                            1
    x50       c1                            886
    x50       c2                            444
    x50       c17                           323
    MARK0001  'MARKER'                 'INTEND'
RHS
    rhs       c1                           2007
    rhs       c2                           1565
    rhs       c3                            698
    rhs       c4                            803
    rhs       c5                            902
    rhs       c6                            823
    rhs       c7                           1201
    rhs       c8                           2091
    rhs       c9                           1352
    rhs       c10                          1409
    rhs       c11                           563
    rhs       c12                          1371
    rhs       c13                          1108
    rhs       c14                          1500
    rhs       c15                          1522
    rhs       c16                           984
    rhs       c17                           712
    rhs       c18                           974
    rhs       c19                          1237
    rhs       c20                          1006
    rhs       c21                          1409
    rhs       c22                          1084
    rhs       c23                          1796
    rhs       c24                          1572
    rhs       c25                          1096
BOUNDS
 LI bnd       x1        0
 LI bnd       x2        0
 LI bnd       x3        0
 LI bnd       x4        0
 LI bnd       x5        0
 LI bnd       x6        0
 LI bnd       x7        0
 LI bnd       x8        0
 LI bnd       x9        0
 LI bnd       x10       0
 LI bnd       x11       0
 LI bnd       x12       0
 LI bnd       x13       0
 LI bnd       x14       0
 LI bnd       x15       0
 LI bnd       x16       0
 LI bnd       x17       0
 LI bnd       x18       0
 LI bnd       x19       0
 LI bnd       x20       0
 LI bnd       x21       0
 LI bnd       x22       0
 LI bnd       x23       0
 LI bnd       x24       0
 LI bnd       x25       0
 LI bnd       x26       0
 LI bnd       x27       0
 LI bnd       x28       0
 LI bnd       x29       0
 LI bnd       x30       0
 LI bnd       x31       0
 LI bnd       x32       0
 LI bnd       x33       0
 LI bnd       x34       0
 LI bnd       x35       0
 LI bnd       x36       0
 LI bnd       x37       0
 LI bnd       x38       0
 LI bnd       x39       0
 LI bnd       x40       0
 LI bnd       x41       0
 LI bnd       x42       0
 LI bnd       x43       0
 LI bnd       x44       0
 LI bnd       x45       0
 LI bnd       x46       0
 LI bnd       x47       0
 LI bnd       x48       0
 LI bnd       x49       0
 LI bnd       x50       0
ENDATA
